1 1 -2 0
1 -3 -4 0
1 3 -5 0
1 4 -6 0
1 -4 -7 0
1 2 8 0
1 2 9 0
1 10 1 0
1 11 4 0
1 12 -13 0
1 12 -14 0
1 -12 15 0
1 -16 -9 0
1 -16 3 0
1 14 17 0
1 14 18 0
1 -14 -19 0
1 -20 -21 0
1 -20 22 0
1 -23 24 0
1 -15 -24 0
1 15 22 0
1 -15 -25 0
1 -26 27 0
1 -26 28 0
1 -29 -30 0
1 -13 -27 0
1 -13 30 0
1 -13 22 0
1 13 -19 0
1 -31 32 0
1 33 34 0
1 34 35 0
1 34 31 0
1 36 37 0
1 38 -39 0
1 -40 -41 0
1 -40 -42 0
1 -40 10 0
1 -43 44 0
1 45 35 0
1 -45 40 0
1 46 38 0
1 47 10 0
1 18 6 0
1 18 48 0
1 -42 49 0
1 -42 50 0
1 51 52 0
1 -51 42 0
1 51 -19 0
1 53 -40 0
1 -53 54 0
1 -53 -38 0
1 17 -44 0
1 30 55 0
1 -30 -56 0
1 50 -57 0
1 -58 59 0
1 -58 -60 0
1 -55 -18 0
1 55 19 0
1 56 61 0
1 62 -63 0
1 62 -64 0
1 60 -58 0
1 -65 66 0
1 65 67 0
1 65 -59 0
1 68 69 0
1 -68 62 0
1 -68 -59 0
1 70 62 0
1 70 59 0
1 71 72 0
1 -71 73 0
1 71 -25 0
1 74 -75 0
1 -28 25 0
1 76 -77 0
1 -72 77 0
1 -72 76 0
1 -78 79 0
1 -80 -81 0
1 -80 82 0
1 80 83 0
1 -84 -81 0
1 84 -85 0
1 -86 37 0
1 -87 -88 0
1 89 -80 0
1 -90 79 0
1 -91 92 0
1 -91 93 0
1 94 40 0
1 -94 95 0
1 -83 -96 0
1 -83 94 0
1 -83 90 0
1 -35 34 0
1 35 -36 0
1 48 97 0
1 -96 -45 0
1 96 48 0
1 96 -98 0
1 92 -44 0
1 -98 99 0
1 -100 96 0
1 -100 -101 0
1 44 -102 0
1 103 92 0
1 103 -43 0
1 -103 44 0
1 103 -46 0
1 -54 104 0
1 54 -53 0
1 -54 -105 0
1 -54 -106 0
1 54 57 0
1 97 107 0
1 -108 107 0
1 -108 -64 0
1 105 109 0
1 -105 -99 0
1 -64 110 0
1 -64 51 0
1 -107 -106 0
1 -111 107 0
1 -112 113 0
1 112 -69 0
1 -112 107 0
1 -106 -114 0
1 -104 -115 0
1 104 -111 0
1 116 -54 0
1 -116 115 0
1 -116 111 0
1 116 -117 0
1 73 112 0
1 73 -56 0
1 -75 -112 0
1 49 -118 0
1 49 -73 0
1 119 49 0
1 119 -75 0
1 -120 -113 0
1 121 122 0
1 66 -123 0
1 124 -125 0
1 124 -70 0
1 124 -63 0
1 -124 -115 0
1 124 -119 0
1 -118 -126 0
1 -127 128 0
1 123 66 0
1 -123 69 0
1 -123 129 0
1 -125 130 0
1 -131 132 0
1 131 66 0
1 -131 69 0
1 -131 133 0
1 126 -56 0
1 134 125 0
1 -135 125 0
1 -135 -136 0
1 -135 122 0
1 -137 138 0
1 137 -130 0
1 -130 -139 0
1 130 140 0
1 -130 137 0
1 -138 -118 0
1 138 141 0
1 -138 142 0
1 143 134 0
1 143 136 0
1 143 135 0
1 143 -137 0
1 136 130 0
1 -136 -144 0
1 -136 -137 0
1 145 146 0
1 -142 -67 0
1 142 147 0
1 -148 -149 0
1 147 148 0
1 -140 28 0
1 146 -150 0
1 -85 151 0
1 85 -152 0
1 -153 154 0
1 -155 -156 0
1 157 -158 0
1 -159 -160 0
1 -159 89 0
1 159 151 0
1 159 91 0
1 -95 -89 0
1 -95 -151 0
1 95 161 0
1 162 -163 0
1 152 -163 0
1 -151 -164 0
1 -151 -165 0
1 -164 -166 0
1 164 167 0
1 -168 -160 0
1 169 170 0
1 169 162 0
1 171 163 0
1 171 -172 0
1 173 -174 0
1 -175 -169 0
1 -101 82 0
1 -176 -173 0
1 176 -82 0
1 -177 -98 0
1 172 170 0
1 172 178 0
1 179 -177 0
1 -179 172 0
1 -178 -180 0
1 -88 169 0
1 88 181 0
1 170 -88 0
1 -170 -182 0
1 99 178 0
1 99 -105 0
1 -183 184 0
1 -183 179 0
1 183 -185 0
1 186 -105 0
1 -187 172 0
1 188 189 0
1 -188 82 0
1 -188 -190 0
1 184 191 0
1 184 183 0
1 -184 -192 0
1 184 172 0
1 193 -104 0
1 -193 -194 0
1 -109 -188 0
1 109 194 0
1 189 69 0
1 -195 104 0
1 195 -189 0
1 195 -116 0
1 195 185 0
1 194 -189 0
1 -185 -195 0
1 -113 196 0
1 113 197 0
1 -113 -194 0
1 -115 120 0
1 -115 124 0
1 198 194 0
1 198 -199 0
1 128 -198 0
1 -197 -113 0
1 -200 201 0
1 -200 202 0
1 199 -203 0
1 132 197 0
1 132 -204 0
1 132 -122 0
1 -132 205 0
1 -122 -126 0
1 202 -206 0
1 202 205 0
1 -206 -207 0
1 -206 -203 0
1 206 -114 0
1 208 132 0
1 -114 -209 0
1 204 -104 0
1 -205 210 0
1 -211 -123 0
1 211 114 0
1 207 141 0
1 207 206 0
1 212 149 0
1 -212 -213 0
1 212 -202 0
1 214 -215 0
1 -144 138 0
1 -144 -139 0
1 -150 216 0
1 150 139 0
1 -150 -215 0
1 -150 -146 0
1 -217 -218 0
1 217 -146 0
1 -129 -217 0
1 129 -149 0
1 -129 123 0
1 -133 219 0
1 220 221 0
1 220 -217 0
1 -222 -139 0
1 -222 -147 0
1 -223 -224 0
1 223 147 0
1 -225 -226 0
1 -227 -228 0
1 229 -227 0
1 230 -224 0
1 231 -232 0
1 231 -233 0
1 -234 235 0
1 234 -236 0
1 237 -236 0
1 226 225 0
1 -232 231 0
1 232 -238 0
1 232 233 0
1 239 240 0
1 241 -242 0
1 241 -243 0
1 241 -244 0
1 245 -246 0
1 245 -244 0
1 245 -247 0
1 -248 239 0
1 244 -249 0
1 250 251 0
1 250 -244 0
1 158 -246 0
1 158 -252 0
1 -158 157 0
1 253 -254 0
1 254 -255 0
1 -254 -245 0
1 -246 256 0
1 -246 -257 0
1 247 -245 0
1 -247 154 0
1 -258 -259 0
1 -258 -260 0
1 166 -153 0
1 166 -151 0
1 -261 252 0
1 -261 -254 0
1 -165 -151 0
1 262 -253 0
1 -263 -160 0
1 -263 -264 0
1 263 265 0
1 -263 -266 0
1 -264 263 0
1 267 -268 0
1 -269 -264 0
1 -269 -181 0
1 -266 -268 0
1 270 264 0
1 270 271 0
1 174 272 0
1 174 273 0
1 -174 -274 0
1 -274 269 0
1 -181 -272 0
1 181 88 0
1 -182 -272 0
1 182 -186 0
1 275 -276 0
1 -272 -191 0
1 -272 -181 0
1 272 182 0
1 273 -268 0
1 273 181 0
1 -273 -277 0
1 180 -278 0
1 -279 -278 0
1 -279 280 0
1 -280 196 0
1 -280 -191 0
1 -280 -181 0
1 281 -282 0
1 283 -278 0
1 283 -284 0
1 278 160 0
1 196 113 0
1 -192 -196 0
1 -192 188 0
1 285 -281 0
1 285 -185 0
1 -286 -280 0
1 286 185 0
1 287 288 0
1 -289 196 0
1 289 290 0
1 289 192 0
1 -291 292 0
1 -293 170 0
1 293 294 0
1 293 -288 0
1 293 -295 0
1 -293 192 0
1 -296 -297 0
1 -296 -185 0
1 298 185 0
1 299 289 0
1 299 300 0
1 -299 287 0
1 -301 302 0
1 -303 285 0
1 304 286 0
1 -304 305 0
1 306 -298 0
1 -306 -307 0
1 201 -303 0
1 302 303 0
1 -302 209 0
1 -210 -308 0
1 210 309 0
1 310 299 0
1 -310 -218 0
1 -310 311 0
1 -312 -313 0
1 -312 300 0
1 -312 -305 0
1 300 314 0
1 300 203 0
1 300 -315 0
1 -316 214 0
1 -317 -309 0
1 317 -316 0
1 -218 -318 0
1 -309 -319 0
1 -309 317 0
1 -309 -320 0
1 -309 215 0
1 321 219 0
1 321 -322 0
1 -308 -320 0
1 -322 -323 0
1 322 222 0
1 -319 323 0
1 219 324 0
1 -219 -325 0
1 326 -220 0
1 -326 -225 0
1 326 327 0
1 326 -133 0
1 -326 219 0
1 -324 -328 0
1 329 -330 0
1 331 -332 0
1 -333 205 0
1 221 327 0
1 -221 -133 0
1 221 213 0
1 328 -324 0
1 -328 -231 0
1 334 -228 0
1 -325 -219 0
1 -335 -229 0
1 335 -336 0
1 238 327 0
1 238 -337 0
1 338 -232 0
1 -339 -340 0
1 -341 129 0
1 -341 -342 0
1 343 -344 0
1 -343 342 0
1 -345 328 0
1 -345 -133 0
1 345 -339 0
1 235 -341 0
1 -342 -235 0
1 346 -338 0
1 346 339 0
1 347 -348 0
1 347 -349 0
1 350 -351 0
1 -352 353 0
1 351 350 0
1 -351 -354 0
1 351 -355 0
1 356 344 0
1 -356 357 0
1 356 226 0
1 358 -359 0
1 -358 -232 0
1 358 360 0
1 -358 361 0
1 240 -239 0
1 362 363 0
1 364 -243 0
1 365 -366 0
1 367 -364 0
1 368 -369 0
1 -368 256 0
1 249 370 0
1 371 372 0
1 -371 373 0
1 371 368 0
1 374 367 0
1 -375 -251 0
1 -375 -250 0
1 375 -247 0
1 -375 -376 0
1 -251 246 0
1 376 377 0
1 378 -379 0
1 378 -380 0
1 381 382 0
1 -379 -383 0
1 377 383 0
1 377 384 0
1 -385 386 0
1 -384 -383 0
1 -384 377 0
1 384 -387 0
1 -388 -385 0
1 388 -380 0
1 389 390 0
1 389 -379 0
1 389 -380 0
1 391 262 0
1 391 259 0
1 391 -265 0
1 -271 392 0
1 -393 394 0
1 392 393 0
1 -395 -391 0
1 -396 397 0
1 -386 385 0
1 -386 397 0
1 386 -398 0
1 -399 -270 0
1 -400 394 0
1 -400 279 0
1 401 -402 0
1 -401 403 0
1 404 -405 0
1 -404 -271 0
1 404 406 0
1 402 -393 0
1 276 -403 0
1 -407 273 0
1 -408 285 0
1 -284 409 0
1 -284 410 0
1 -284 283 0
1 410 411 0
1 410 -277 0
1 -409 412 0
1 -409 413 0
1 -409 -414 0
1 414 -276 0
1 411 281 0
1 -411 -415 0
1 416 -417 0
1 292 -410 0
1 -292 413 0
1 -292 -403 0
1 415 -295 0
1 418 419 0
1 -418 408 0
1 -418 -420 0
1 -421 -422 0
1 288 422 0
1 307 -423 0
1 -307 424 0
1 425 415 0
1 -426 422 0
1 426 421 0
1 422 -425 0
1 427 428 0
1 429 -430 0
1 -429 -425 0
1 305 422 0
1 305 431 0
1 431 -312 0
1 431 -424 0
1 -315 290 0
1 -315 -432 0
1 424 -433 0
1 -290 434 0
1 -311 -435 0
1 433 436 0
1 437 -438 0
1 -437 -290 0
1 -439 440 0
1 -439 -320 0
1 -440 -441 0
1 -436 -442 0
1 435 443 0
1 435 -436 0
1 435 444 0
1 -320 308 0
1 -445 440 0
1 -446 447 0
1 446 439 0
1 446 331 0
1 441 -440 0
1 -441 -448 0
1 447 433 0
1 449 437 0
1 -449 -446 0
1 449 -320 0
1 -450 451 0
1 -452 -453 0
1 -454 -455 0
1 -454 -337 0
1 456 457 0
1 -456 458 0
1 -448 459 0
1 448 460 0
1 -448 461 0
1 455 235 0
1 462 332 0
1 463 -464 0
1 -463 453 0
1 465 -461 0
1 -465 -466 0
1 464 467 0
1 464 349 0
1 -464 -468 0
1 -453 469 0
1 453 468 0
1 -470 -468 0
1 -469 -347 0
1 471 472 0
1 349 -473 0
1 -349 -474 0
1 475 -465 0
1 -474 463 0
1 -476 469 0
1 476 477 0
1 -466 478 0
1 361 -479 0
1 361 472 0
1 361 -480 0
1 481 -482 0
1 481 483 0
1 483 -481 0
1 -483 -357 0
1 -357 -481 0
1 -357 -484 0
1 357 485 0
1 486 -487 0
1 486 -488 0
1 479 489 0
1 479 -361 0
1 -348 490 0
1 491 -479 0
1 -491 -355 0
1 491 485 0
1 492 -493 0
1 -492 -494 0
1 -495 -496 0
1 494 -486 0
1 494 354 0
1 -355 -494 0
1 -487 492 0
1 373 -497 0
1 -373 370 0
1 -373 374 0
1 498 -499 0
1 -498 -377 0
1 382 385 0
1 382 500 0
1 501 -373 0
1 -497 382 0
1 497 502 0
1 497 501 0
1 -503 373 0
1 -504 382 0
1 -504 -373 0
1 -504 -505 0
1 -506 -507 0
1 506 499 0
1 -507 372 0
1 507 376 0
1 502 -508 0
1 -502 509 0
1 502 510 0
1 -372 -382 0
1 -372 387 0
1 508 511 0
1 -512 -507 0
1 -512 -498 0
1 -387 -400 0
1 -397 513 0
1 -514 510 0
1 -514 515 0
1 -516 502 0
1 510 -517 0
1 518 -502 0
1 518 -500 0
1 -519 -402 0
1 -398 520 0
1 -521 -408 0
1 -521 515 0
1 522 515 0
1 522 -523 0
1 -522 524 0
1 522 516 0
1 -525 413 0
1 -515 514 0
1 520 -526 0
1 520 -527 0
1 -513 522 0
1 -513 -514 0
1 -528 -525 0
1 -528 -515 0
1 413 -529 0
1 413 530 0
1 -413 414 0
1 -531 -413 0
1 -532 -395 0
1 532 533 0
1 532 423 0
1 529 534 0
1 523 535 0
1 536 -405 0
1 -536 537 0
1 537 -536 0
1 537 538 0
1 537 539 0
1 -423 540 0
1 -541 -530 0
1 540 537 0
1 542 536 0
1 542 -530 0
1 -530 417 0
1 530 -413 0
1 530 -423 0
1 420 -430 0
1 -420 -427 0
1 432 429 0
1 -432 -405 0
1 432 412 0
1 -428 -412 0
1 -428 543 0
1 -543 544 0
1 -543 -545 0
1 -546 -438 0
1 -546 428 0
1 -412 -430 0
1 -412 541 0
1 -412 -547 0
1 412 423 0
1 548 430 0
1 -549 550 0
1 549 551 0
1 -544 294 0
1 544 543 0
1 -544 -426 0
1 438 543 0
1 -438 550 0
1 -419 -438 0
1 550 552 0
1 553 294 0
1 553 -290 0
1 -554 -551 0
1 443 555 0
1 -556 -557 0
1 558 438 0
1 -559 443 0
1 559 -545 0
1 559 558 0
1 -451 -436 0
1 444 313 0
1 444 -555 0
1 -444 451 0
1 560 561 0
1 -560 556 0
1 562 563 0
1 -562 -564 0
1 -565 443 0
1 -565 566 0
1 -564 -566 0
1 564 567 0
1 460 447 0
1 460 565 0
1 460 563 0
1 -460 -448 0
1 -460 458 0
1 -458 568 0
1 458 -447 0
1 458 563 0
1 461 -565 0
1 -568 -461 0
1 563 569 0
1 -561 570 0
1 -561 -566 0
1 -561 -461 0
1 457 571 0
1 -457 332 0
1 457 572 0
1 457 -448 0
1 -573 568 0
1 574 -573 0
1 574 349 0
1 -574 575 0
1 -576 -577 0
1 -576 -313 0
1 -572 -573 0
1 572 -578 0
1 480 -579 0
1 -480 -580 0
1 581 -571 0
1 -581 582 0
1 580 -573 0
1 580 578 0
1 -583 -573 0
1 -583 584 0
1 -478 -585 0
1 -478 475 0
1 478 586 0
1 -478 -474 0
1 -585 587 0
1 -588 586 0
1 -589 582 0
1 589 -493 0
1 -589 -590 0
1 -589 -478 0
1 -587 -591 0
1 -591 582 0
1 -592 -473 0
1 -592 589 0
1 -593 -493 0
1 -594 -593 0
1 -595 -592 0
1 -596 493 0
1 597 499 0
1 -598 501 0
1 599 503 0
1 600 597 0
1 -601 516 0
1 602 -603 0
1 604 -605 0
1 606 607 0
1 -606 527 0
1 511 604 0
1 -511 -538 0
1 -603 604 0
1 -603 -608 0
1 603 -524 0
1 -609 -527 0
1 610 -538 0
1 -610 611 0
1 -538 513 0
1 -534 526 0
1 605 610 0
1 -605 -612 0
1 605 -527 0
1 605 613 0
1 -614 -615 0
1 -611 -518 0
1 -611 -527 0
1 611 534 0
1 616 617 0
1 -618 542 0
1 -613 619 0
1 -620 -621 0
1 620 -530 0
1 -621 622 0
1 621 -618 0
1 -526 -612 0
1 526 -623 0
1 -526 613 0
1 623 624 0
1 623 -625 0
1 -547 615 0
1 -547 -548 0
1 -626 -548 0
1 -627 628 0
1 627 629 0
1 -533 630 0
1 533 -626 0
1 -533 629 0
1 619 630 0
1 -535 -523 0
1 535 626 0
1 -631 -546 0
1 -552 -631 0
1 -632 -628 0
1 632 -405 0
1 632 -633 0
1 -632 634 0
1 -633 632 0
1 635 -636 0
1 -635 637 0
1 -637 -638 0
1 -637 552 0
1 -637 -636 0
1 -637 639 0
1 640 -636 0
1 -640 -641 0
1 642 643 0
1 642 -444 0
1 -644 -645 0
1 -644 -646 0
1 647 -645 0
1 -647 648 0
1 -647 643 0
1 647 633 0
1 -643 649 0
1 -643 -640 0
1 -650 -651 0
1 -648 634 0
1 -648 -647 0
1 -641 648 0
1 -567 555 0
1 -567 -643 0
1 -652 -557 0
1 652 653 0
1 652 654 0
1 651 655 0
1 651 654 0
1 651 557 0
1 651 564 0
1 -645 656 0
1 -570 654 0
1 -566 -655 0
1 -566 -657 0
1 -658 -557 0
1 -659 660 0
1 661 -569 0
1 661 -662 0
1 -654 -652 0
1 654 -659 0
1 -655 -663 0
1 569 661 0
1 664 -665 0
1 664 -666 0
1 577 -557 0
1 666 -667 0
1 666 -668 0
1 -669 670 0
1 669 -659 0
1 -660 -671 0
1 672 -576 0
1 672 -580 0
1 -578 -673 0
1 -668 -674 0
1 670 -675 0
1 -670 -669 0
1 675 -568 0
1 -675 -676 0
1 673 -676 0
1 -673 662 0
1 -673 -563 0
1 -673 -677 0
1 678 -662 0
1 678 -667 0
1 -584 679 0
1 -584 673 0
1 -584 667 0
1 -680 -584 0
1 -680 681 0
1 677 673 0
1 676 -674 0
1 681 -680 0
1 -608 609 0
1 608 682 0
1 -683 611 0
1 -683 -684 0
1 685 686 0
1 684 -598 0
1 687 688 0
1 687 683 0
1 686 608 0
1 615 -688 0
1 -615 616 0
1 -615 684 0
1 688 -689 0
1 -688 -690 0
1 -625 -626 0
1 -625 -684 0
1 624 -687 0
1 624 -689 0
1 -624 -684 0
1 691 -692 0
1 -693 694 0
1 692 619 0
1 692 691 0
1 -695 696 0
1 -697 -698 0
1 -699 -700 0
1 699 701 0
1 -702 622 0
1 -698 692 0
1 617 703 0
1 636 699 0
1 629 -642 0
1 -700 -704 0
1 705 -706 0
1 707 697 0
1 -706 -708 0
1 -706 709 0
1 -706 -710 0
1 634 -711 0
1 -712 -713 0
1 -712 -704 0
1 710 713 0
1 710 -712 0
1 710 704 0
1 713 700 0
1 713 714 0
1 713 -715 0
1 -704 716 0
1 704 717 0
1 -718 716 0
1 -718 -719 0
1 -719 -716 0
1 719 -720 0
1 721 715 0
1 715 -722 0
1 -723 -712 0
1 723 724 0
1 725 -649 0
1 -726 -727 0
1 726 728 0
1 -639 649 0
1 -639 -727 0
1 729 730 0
1 729 645 0
1 -729 654 0
1 -665 -714 0
1 -665 731 0
1 -665 -725 0
1 -663 732 0
1 663 654 0
1 -733 -723 0
1 -734 -730 0
1 734 721 0
1 734 -643 0
1 734 665 0
1 -734 735 0
1 -730 -721 0
1 -730 665 0
1 730 -735 0
1 730 671 0
1 736 665 0
1 -737 655 0
1 -738 654 0
1 671 -739 0
1 -740 -671 0
1 741 -742 0
1 743 -737 0
1 656 -738 0
1 -667 -741 0
1 -667 744 0
1 -745 746 0
1 745 747 0
1 -747 -667 0
1 739 740 0
1 703 698 0
1 694 -748 0
1 694 749 0
1 -750 -751 0
1 750 -752 0
1 -751 753 0
1 -751 -754 0
1 -748 -755 0
1 -756 -757 0
1 -756 -749 0
1 701 -752 0
1 -701 696 0
1 701 749 0
1 754 -751 0
1 754 757 0
1 -754 758 0
1 759 756 0
1 759 709 0
1 -757 -750 0
1 752 -760 0
1 -752 761 0
1 708 762 0
1 -709 706 0
1 -720 -718 0
1 763 720 0
1 -763 715 0
1 -764 732 0
1 764 716 0
1 764 720 0
1 765 -720 0
1 -765 -766 0
1 767 -762 0
1 -762 -768 0
1 762 767 0
1 -714 764 0
1 714 -726 0
1 732 769 0
1 -732 770 0
1 769 -732 0
1 -771 763 0
1 -771 772 0
1 773 716 0
1 774 -732 0
1 -774 775 0
1 -774 -772 0
1 -776 -726 0
1 -776 771 0
1 -776 -777 0
1 727 -722 0
1 -727 -717 0
1 -727 639 0
1 778 779 0
1 778 -722 0
1 778 780 0
1 -770 -781 0
1 770 782 0
1 -717 783 0
1 717 784 0
1 -717 -735 0
1 785 786 0
1 -735 656 0
1 735 784 0
1 735 -743 0
1 784 780 0
1 784 717 0
1 781 783 0
1 -783 -724 0
1 783 743 0
1 -724 -778 0
1 760 787 0
1 -788 -789 0
1 -788 -787 0
1 787 790 0
1 787 791 0
1 -753 -775 0
1 -753 -792 0
1 -755 -789 0
1 792 -761 0
1 793 761 0
1 793 -794 0
1 795 788 0
1 -796 -790 0
1 796 -775 0
1 -794 790 0
1 -761 -794 0
1 797 -798 0
1 -797 777 0
1 -797 -799 0
1 -786 800 0
1 800 786 0
1 766 765 0
1 -766 786 0
